NAME : pairopt
TYPE : ACVRP
DIMENSION : 8
EDGE_WEIGHT_TYPE : EXPLICIT
EDGE_WEIGHT_FORMAT : FULL_MATRIX
CAPACITY : 18750
VEHICLES : 2
EDGE_WEIGHT_SECTION
100000 -100000 -100000 100000 100000 100000 100000 100000 
100000 100000 1000000 894 51076 51121 51260 644 
100000 1000000 100000 148 51022 51266 51270 105 
0 894 148 100000 1014 1359 1264 250 
0 51076 51022 1014 100000 420 265 102061 
0 51121 51266 1359 420 100000 316 102500 
0 51260 51270 1264 265 316 100000 102549 
0 644 105 250 102061 102500 102549 100000 
DEMAND_SECTION
1 0
2 0
3 0
4 5000
5 5000
6 5000
7 5000
8 5000
DEPOT_SECTION
1
EOF